(set-option :produce-models true); benchmark generated from python API
(set-info :status unknown)
(declare-fun l_1_0_9 () Real)
(declare-fun l_1_0_8 () Real)
(declare-fun l_1_0_7 () Real)
(declare-fun l_1_0_6 () Real)
(declare-fun l_1_0_5 () Real)
(declare-fun l_1_0_4 () Real)
(declare-fun l_1_0_3 () Real)
(declare-fun l_1_0_2 () Real)
(declare-fun l_1_0_1 () Real)
(declare-fun _a_0_ () Real)
(declare-fun l_1_0_11 () Real)
(declare-fun l_1_0_10 () Real)
(declare-fun _a_1_ () Real)
(declare-fun _a_2_ () Real)
(declare-fun l_1_1_16 () Real)
(declare-fun l_1_1_15 () Real)
(declare-fun l_1_1_13 () Real)
(declare-fun l_1_1_12 () Real)
(declare-fun l_1_1_11 () Real)
(declare-fun l_1_1_10 () Real)
(declare-fun l_1_1_1 () Real)
(declare-fun l_1_1_5 () Real)
(declare-fun l_1_1_17 () Real)
(declare-fun l_1_1_9 () Real)
(declare-fun l_1_1_8 () Real)
(declare-fun l_1_1_7 () Real)
(declare-fun l_1_1_6 () Real)
(declare-fun l_1_1_4 () Real)
(declare-fun l_1_1_3 () Real)
(declare-fun l_1_1_2 () Real)
(declare-fun l_1_1_14 () Real)
(declare-fun l_1_2_7 () Real)
(declare-fun l_1_2_6 () Real)
(declare-fun l_1_2_4 () Real)
(declare-fun l_1_2_2 () Real)
(declare-fun l_1_2_15 () Real)
(declare-fun l_1_2_14 () Real)
(declare-fun l_1_2_13 () Real)
(declare-fun l_1_2_11 () Real)
(declare-fun l_1_2_10 () Real)
(declare-fun l_1_2_1 () Real)
(declare-fun l_1_2_9 () Real)
(declare-fun l_1_2_8 () Real)
(declare-fun l_1_2_5 () Real)
(declare-fun l_1_2_3 () Real)
(declare-fun l_1_2_12 () Real)
(declare-fun l_1_2_17 () Real)
(declare-fun l_1_2_16 () Real)
(assert
 (let ((?x105 (* l_1_0_9 l_1_0_9)))
 (let ((?x28 (- (- (- _a_0_ (* 1.0 l_1_0_1)) l_1_0_2) (* 1.0 l_1_0_3))))
 (let ((?x23 (- (- (- (- ?x28 l_1_0_4) (* 1.0 l_1_0_5)) (* 1.0 l_1_0_6)) l_1_0_7)))
 (= (- (- ?x23 l_1_0_8) ?x105) 0.0)))))
(assert
 (let ((?x297 (* l_1_0_11 l_1_0_11)))
 (let ((?x298 (- (- (+ _a_1_ (* 2.0 l_1_0_1)) (* l_1_0_10 l_1_0_10)) ?x297)))
 (= (+ (+ (+ ?x298 l_1_0_3) l_1_0_5) l_1_0_6) 0.0))))
(assert
 (= (- _a_2_ (* (* 2.0 l_1_0_10) l_1_0_9)) 0.0))
(assert
 (= (- l_1_0_1) 0.0))
(assert
 (>= l_1_0_1 0.0))
(assert
 (>= l_1_0_2 0.0))
(assert
 (>= l_1_0_3 0.0))
(assert
 (>= l_1_0_4 0.0))
(assert
 (>= l_1_0_5 0.0))
(assert
 (>= l_1_0_6 0.0))
(assert
 (>= l_1_0_7 0.0))
(assert
 (>= l_1_0_8 0.0))
(assert
 (>= l_1_0_9 0.0))
(assert
 (>= l_1_0_11 0.0))
(assert
 (let ((?x234 (* _a_2_ l_1_1_13)))
 (let ((?x232 (* _a_2_ l_1_1_12)))
 (let ((?x253 (* _a_2_ l_1_1_10)))
 (let ((?x160 (+ (* (* (* (- 2.0) _a_0_) _a_2_) l_1_1_5) (* (* 1.0 _a_2_) l_1_1_1))))
 (let ((?x208 (- (- (+ (- ?x160 ?x253) (* (* 1.0 _a_2_) l_1_1_11)) ?x232) ?x234)))
 (= (+ (- ?x208 (* (* 2.0 l_1_1_15) l_1_1_16)) 8.0) 0.0)))))))
(assert
 (let ((?x136 (* l_1_1_17 l_1_1_17)))
 (let ((?x133 (* l_1_1_16 l_1_1_16)))
 (let ((?x131 (* _a_1_ l_1_1_13)))
 (let ((?x129 (* _a_1_ l_1_1_12)))
 (let ((?x128 (+ (- (* (* 1.0 _a_1_) l_1_1_1) (* _a_1_ l_1_1_10)) (* (* 1.0 _a_1_) l_1_1_11))))
 (let ((?x120 (- (- (- (- (- ?x128 ?x129) ?x131) ?x133) ?x136) (* l_1_1_5 (+ (* (* 2.0 _a_0_) _a_1_) (* _a_2_ _a_2_))))))
 (= (- ?x120 1.0) 0.0))))))))
(assert
 (let ((?x336 (* l_1_1_15 l_1_1_15)))
 (let ((?x200 (* _a_0_ l_1_1_13)))
 (let ((?x195 (* _a_0_ l_1_1_12)))
 (let ((?x192 (+ (- (* (* 1.0 _a_0_) l_1_1_1) (* _a_0_ l_1_1_10)) (* (* 1.0 _a_0_) l_1_1_11))))
 (let ((?x86 (- (- (- (- (- ?x192 ?x195) ?x200) l_1_1_14) ?x336) (* 1.0 l_1_1_2))))
 (let ((?x101 (- (- (+ ?x86 (* 1.0 l_1_1_3)) l_1_1_4) (* (* l_1_1_5 _a_0_) _a_0_))))
 (let ((?x144 (- (+ (+ (- ?x101 l_1_1_6) (* 1.0 l_1_1_7)) (* 1.0 l_1_1_8)) l_1_1_9)))
 (= (- ?x144 15.0) 0.0)))))))))
(assert
 (= (* (* (- l_1_1_5) _a_1_) _a_1_) 0.0))
(assert
 (= (* (* (* (- 2.0) _a_1_) _a_2_) l_1_1_5) 0.0))
(assert
 (>= l_1_1_1 0.0))
(assert
 (>= l_1_1_2 0.0))
(assert
 (>= l_1_1_3 0.0))
(assert
 (>= l_1_1_4 0.0))
(assert
 (>= l_1_1_5 0.0))
(assert
 (>= l_1_1_6 0.0))
(assert
 (>= l_1_1_7 0.0))
(assert
 (>= l_1_1_8 0.0))
(assert
 (>= l_1_1_9 0.0))
(assert
 (>= l_1_1_10 0.0))
(assert
 (>= l_1_1_11 0.0))
(assert
 (>= l_1_1_12 0.0))
(assert
 (>= l_1_1_13 0.0))
(assert
 (>= l_1_1_14 0.0))
(assert
 (>= l_1_1_15 0.0))
(assert
 (>= l_1_1_17 0.0))
(assert
 (let ((?x218 (* l_1_2_15 l_1_2_15)))
 (let ((?x242 (* _a_0_ l_1_2_9)))
 (let ((?x246 (* _a_0_ l_1_2_8)))
 (let ((?x245 (* _a_0_ l_1_2_5)))
 (let ((?x240 (- (* (* (- 1.0) _a_0_) l_1_2_12) (* (* 1.0 _a_0_) l_1_2_3))))
 (let ((?x239 (- (+ (- (- (- ?x240 ?x245) ?x246) ?x242) _a_0_) (* (* l_1_2_1 _a_0_) _a_0_))))
 (let ((?x224 (- (- (- ?x239 (* 1.0 l_1_2_10)) (* 1.0 l_1_2_11)) l_1_2_13)))
 (let ((?x260 (- (- (- (- (- ?x224 l_1_2_14) ?x218) (* 1.0 l_1_2_2)) l_1_2_4) (* 1.0 l_1_2_6))))
 (= (- ?x260 l_1_2_7) 0.0))))))))))
(assert
 (let ((?x461 (* l_1_2_17 l_1_2_17)))
 (let ((?x459 (* l_1_2_16 l_1_2_16)))
 (let ((?x455 (* (/ 3.0 50.0) _a_2_)))
 (let ((?x452 (* (/ 529.0 625.0) _a_1_)))
 (let ((?x449 (* _a_1_ l_1_2_9)))
 (let ((?x447 (* _a_1_ l_1_2_8)))
 (let ((?x445 (* _a_1_ l_1_2_5)))
 (let ((?x43 (- (* (* (- 1.0) _a_1_) l_1_2_12) (* (* 1.0 _a_1_) l_1_2_3))))
 (let ((?x458 (- (+ (+ (- (- (- ?x43 ?x445) ?x447) ?x449) ?x452) ?x455) (* l_1_2_1 (+ (* (* 2.0 _a_0_) _a_1_) (* _a_2_ _a_2_))))))
 (= (- (- ?x458 ?x459) ?x461) 0.0)))))))))))
(assert
 (= (- (* (- (/ 37.0 2500.0)) _a_1_) (* (* l_1_2_1 _a_1_) _a_1_)) 0.0))
(assert
 (let ((?x522 (* (/ 1.0 100.0) _a_2_)))
 (let ((?x523 (- (+ (* (* (* (- 2.0) _a_1_) _a_2_) l_1_2_1) (* (/ 69.0 625.0) _a_1_)) ?x522)))
 (= ?x523 0.0))))
(assert
 (= (* (/ 1.0 10000.0) _a_1_) 0.0))
(assert
 (= (* (- (/ 3.0 2500.0)) _a_1_) 0.0))
(assert
 (let ((?x555 (* (/ 23.0 25.0) _a_2_)))
 (let ((?x552 (* _a_2_ l_1_2_9)))
 (let ((?x550 (* _a_2_ l_1_2_8)))
 (let ((?x548 (* _a_2_ l_1_2_5)))
 (let ((?x545 (- (* (* (* (- 2.0) _a_0_) _a_2_) l_1_2_1) (* (* 1.0 _a_2_) l_1_2_12))))
 (let ((?x553 (- (- (- (- ?x545 (* (* 1.0 _a_2_) l_1_2_3)) ?x548) ?x550) ?x552)))
 (= (- (+ ?x553 ?x555) (* (* 2.0 l_1_2_15) l_1_2_16)) 0.0))))))))
(assert
 (>= l_1_2_1 0.0))
(assert
 (>= l_1_2_2 0.0))
(assert
 (>= l_1_2_3 0.0))
(assert
 (>= l_1_2_4 0.0))
(assert
 (>= l_1_2_5 0.0))
(assert
 (>= l_1_2_6 0.0))
(assert
 (>= l_1_2_7 0.0))
(assert
 (>= l_1_2_8 0.0))
(assert
 (>= l_1_2_9 0.0))
(assert
 (>= l_1_2_10 0.0))
(assert
 (>= l_1_2_11 0.0))
(assert
 (>= l_1_2_12 0.0))
(assert
 (>= l_1_2_13 0.0))
(assert
 (>= l_1_2_14 0.0))
(assert
 (>= l_1_2_15 0.0))
(assert
 (>= l_1_2_17 0.0))
(check-sat)
(get-model)